c FILE /home/rafael/Documents/HappySet/MIHS/inputs/happygen/output/graph_scale_free_k5_p0.2_v50_20241127_082440.txt
c SOURCE This is a scale-free graph formed for the happy graph colouring problem.
c DESCRIPTION It was generated using the problem generator of Rhyd Lewis
c
c GRAPH STATS
c Seed                             = -1823656567
c Number of Nodes                  = 50
c Number of colours k              = 5
c Number of pre-assignments        = 10
c Number of links per new node     = 5
c Density                          = 0.191837
c 
c The degrees of nodes 1 to 50, respectively, are as follows 
c [25, 21, 20, 20, 18, 17, 17, 16, 16, 15, 12, 12, 11, 10, 10, 9, 9, 9, 9, 8, 8, 8, 8, 8, 8, 8, 
c  7, 7, 7, 7, 7, 7, 7, 6, 6, 6, 6, 5, 5, 5, 5, 5, 5, 5, 5, 5, 5, 5, 5, 5] 
c  
p edge 50 235 5
e 1 2
e 1 3
e 1 4
e 1 5
e 1 7
e 1 8
e 1 10
e 1 11
e 1 12
e 1 13
e 1 16
e 1 18
e 1 19
e 1 24
e 1 25
e 1 27
e 1 28
e 1 31
e 1 34
e 1 35
e 1 36
e 1 38
e 1 39
e 1 40
e 1 46
e 2 3
e 2 4
e 2 5
e 2 6
e 2 8
e 2 9
e 2 11
e 2 13
e 2 14
e 2 19
e 2 20
e 2 26
e 2 28
e 2 30
e 2 32
e 2 33
e 2 41
e 2 42
e 2 43
e 2 50
e 3 4
e 3 5
e 3 6
e 3 7
e 3 8
e 3 12
e 3 13
e 3 14
e 3 15
e 3 21
e 3 22
e 3 23
e 3 26
e 3 31
e 3 37
e 3 39
e 3 44
e 3 46
e 4 5
e 4 6
e 4 8
e 4 9
e 4 10
e 4 14
e 4 16
e 4 17
e 4 18
e 4 29
e 4 34
e 4 37
e 4 39
e 4 41
e 4 45
e 4 49
e 4 50
e 5 6
e 5 8
e 5 9
e 5 11
e 5 12
e 5 13
e 5 16
e 5 32
e 5 34
e 5 36
e 5 38
e 5 45
e 5 48
e 5 49
e 6 8
e 6 9
e 6 10
e 6 11
e 6 15
e 6 16
e 6 17
e 6 18
e 6 20
e 6 25
e 6 27
e 6 35
e 6 50
e 7 8
e 7 9
e 7 10
e 7 11
e 7 15
e 7 18
e 7 20
e 7 27
e 7 28
e 7 30
e 7 35
e 7 38
e 7 39
e 7 44
e 7 48
e 8 10
e 8 11
e 8 13
e 8 15
e 8 16
e 8 17
e 8 22
e 8 28
e 8 36
e 9 12
e 9 16
e 9 17
e 9 21
e 9 23
e 9 24
e 9 25
e 9 27
e 9 35
e 9 40
e 9 45
e 10 15
e 10 22
e 10 25
e 10 29
e 10 40
e 10 41
e 10 43
e 10 44
e 10 45
e 10 47
e 11 18
e 11 22
e 11 26
e 11 30
e 11 34
e 11 35
e 12 13
e 12 17
e 12 22
e 12 23
e 12 27
e 12 28
e 12 30
e 12 46
e 13 20
e 13 21
e 13 24
e 13 34
e 13 47
e 14 16
e 14 18
e 14 26
e 14 38
e 14 41
e 14 43
e 14 45
e 15 24
e 15 29
e 15 30
e 15 37
e 15 48
e 16 21
e 16 44
e 17 32
e 17 37
e 17 39
e 17 48
e 18 19
e 18 21
e 18 29
e 19 21
e 19 29
e 19 42
e 19 43
e 19 47
e 19 50
e 20 28
e 20 32
e 20 33
e 20 38
e 21 23
e 21 40
e 22 23
e 22 33
e 22 43
e 23 24
e 23 25
e 23 40
e 24 31
e 24 36
e 24 49
e 25 42
e 25 44
e 25 47
e 26 31
e 26 32
e 26 33
e 26 36
e 27 29
e 27 42
e 28 37
e 29 31
e 30 42
e 30 46
e 31 35
e 31 46
e 32 48
e 32 49
e 33 34
e 33 49
e 33 50
e 36 41
e 37 47
n 7 1
n 9 1
n 12 1
n 14 5
n 17 1
n 23 1
n 31 2
n 47 3
n 49 2
n 50 4
